*SPEF "ieee 1481-1999"
*DESIGN "decoder_top_10b"
*DATE "08:56:40 Monday September 28, 2026"
*VENDOR "The OpenROAD Project"
*PROGRAM "OpenROAD"
*VERSION "26Q1-1024-gdcf36133a"
*DESIGN_FLOW "NAME_SCOPE LOCAL" "PIN_CAP NONE"
*DIVIDER /
*DELIMITER :
*BUS_DELIMITER []
*T_UNIT 1 NS
*C_UNIT 1 PF
*R_UNIT 1 OHM
*L_UNIT 1 HENRY

*NAME_MAP
*3 d[0]
*4 d[1]
*5 d[2]
*6 d[3]
*7 d[4]
*8 d[5]
*9 d[6]
*10 d[7]
*11 d[8]
*12 d[9]
*13 s[4]
*14 s[5]
*15 s[6]
*16 s[7]
*17 s[8]
*18 s[9]
*19 sb[4]
*20 sb[5]
*21 sb[6]
*22 sb[7]
*23 sb[8]
*24 sb[9]
*25 y[0]
*26 y[10]
*27 y[11]
*28 y[12]
*29 y[13]
*30 y[14]
*31 y[15]
*32 y[1]
*33 y[2]
*34 y[3]
*35 y[4]
*36 y[5]
*37 y[6]
*38 y[7]
*39 y[8]
*40 y[9]
*41 _00_
*42 _01_
*43 _02_
*44 _03_
*45 _04_
*46 _05_
*47 net1
*48 net10
*49 net11
*50 net12
*51 net13
*52 net14
*53 net15
*54 net16
*55 net17
*56 net18
*57 net19
*58 net2
*59 net20
*60 net21
*61 net22
*62 net23
*63 net24
*64 net25
*65 net26
*66 net27
*67 net28
*68 net29
*69 net3
*70 net30
*71 net31
*72 net32
*73 net33
*74 net34
*75 net35
*76 net36
*77 net37
*78 net38
*79 net39
*80 net4
*81 net40
*82 net5
*83 net6
*84 net7
*85 net8
*86 net9
*87 FILLER_0_0
*88 FILLER_0_106
*89 FILLER_0_113
*90 FILLER_0_120
*91 FILLER_0_127
*92 FILLER_0_131
*93 FILLER_0_14
*94 FILLER_0_21
*95 FILLER_0_28
*96 FILLER_0_35
*97 FILLER_0_42
*98 FILLER_0_49
*99 FILLER_0_61
*100 FILLER_0_65
*101 FILLER_0_7
*102 FILLER_0_75
*103 FILLER_0_82
*104 FILLER_0_86
*105 FILLER_10_0
*106 FILLER_10_106
*107 FILLER_10_113
*108 FILLER_10_120
*109 FILLER_10_127
*110 FILLER_10_131
*111 FILLER_10_14
*112 FILLER_10_21
*113 FILLER_10_28
*114 FILLER_10_32
*115 FILLER_10_7
*116 FILLER_10_71
*117 FILLER_10_78
*118 FILLER_10_85
*119 FILLER_10_92
*120 FILLER_10_99
*121 FILLER_1_105
*122 FILLER_1_112
*123 FILLER_1_119
*124 FILLER_1_126
*125 FILLER_1_130
*126 FILLER_1_14
*127 FILLER_1_21
*128 FILLER_1_28
*129 FILLER_1_35
*130 FILLER_1_4
*131 FILLER_1_42
*132 FILLER_1_49
*133 FILLER_1_56
*134 FILLER_1_63
*135 FILLER_1_70
*136 FILLER_1_77
*137 FILLER_1_8
*138 FILLER_1_84
*139 FILLER_1_91
*140 FILLER_1_98
*141 FILLER_2_106
*142 FILLER_2_113
*143 FILLER_2_120
*144 FILLER_2_127
*145 FILLER_2_131
*146 FILLER_2_15
*147 FILLER_2_22
*148 FILLER_2_29
*149 FILLER_2_36
*150 FILLER_2_43
*151 FILLER_2_50
*152 FILLER_2_57
*153 FILLER_2_64
*154 FILLER_2_71
*155 FILLER_2_78
*156 FILLER_2_85
*157 FILLER_2_92
*158 FILLER_2_99
*159 FILLER_3_104
*160 FILLER_3_111
*161 FILLER_3_118
*162 FILLER_3_125
*163 FILLER_3_14
*164 FILLER_3_21
*165 FILLER_3_28
*166 FILLER_3_35
*167 FILLER_3_42
*168 FILLER_3_49
*169 FILLER_3_56
*170 FILLER_3_69
*171 FILLER_3_76
*172 FILLER_3_8
*173 FILLER_3_83
*174 FILLER_3_90
*175 FILLER_3_97
*176 FILLER_4_100
*177 FILLER_4_107
*178 FILLER_4_114
*179 FILLER_4_121
*180 FILLER_4_128
*181 FILLER_4_18
*182 FILLER_4_20
*183 FILLER_4_30
*184 FILLER_4_37
*185 FILLER_4_44
*186 FILLER_4_51
*187 FILLER_4_58
*188 FILLER_4_72
*189 FILLER_4_79
*190 FILLER_4_86
*191 FILLER_4_93
*192 FILLER_5_102
*193 FILLER_5_109
*194 FILLER_5_116
*195 FILLER_5_123
*196 FILLER_5_18
*197 FILLER_5_25
*198 FILLER_5_27
*199 FILLER_5_38
*200 FILLER_5_45
*201 FILLER_5_52
*202 FILLER_5_56
*203 FILLER_5_61
*204 FILLER_5_65
*205 FILLER_5_74
*206 FILLER_5_8
*207 FILLER_5_81
*208 FILLER_5_88
*209 FILLER_5_95
*210 FILLER_6_100
*211 FILLER_6_107
*212 FILLER_6_114
*213 FILLER_6_121
*214 FILLER_6_123
*215 FILLER_6_23
*216 FILLER_6_30
*217 FILLER_6_37
*218 FILLER_6_44
*219 FILLER_6_51
*220 FILLER_6_58
*221 FILLER_6_62
*222 FILLER_6_79
*223 FILLER_6_86
*224 FILLER_6_93
*225 FILLER_7_105
*226 FILLER_7_112
*227 FILLER_7_119
*228 FILLER_7_123
*229 FILLER_7_14
*230 FILLER_7_21
*231 FILLER_7_28
*232 FILLER_7_35
*233 FILLER_7_42
*234 FILLER_7_49
*235 FILLER_7_56
*236 FILLER_7_63
*237 FILLER_7_70
*238 FILLER_7_77
*239 FILLER_7_8
*240 FILLER_7_84
*241 FILLER_7_91
*242 FILLER_7_98
*243 FILLER_8_105
*244 FILLER_8_112
*245 FILLER_8_119
*246 FILLER_8_126
*247 FILLER_8_130
*248 FILLER_8_14
*249 FILLER_8_21
*250 FILLER_8_28
*251 FILLER_8_35
*252 FILLER_8_4
*253 FILLER_8_42
*254 FILLER_8_49
*255 FILLER_8_56
*256 FILLER_8_63
*257 FILLER_8_70
*258 FILLER_8_77
*259 FILLER_8_8
*260 FILLER_8_84
*261 FILLER_8_91
*262 FILLER_8_98
*263 FILLER_9_105
*264 FILLER_9_112
*265 FILLER_9_119
*266 FILLER_9_126
*267 FILLER_9_13
*268 FILLER_9_130
*269 FILLER_9_20
*270 FILLER_9_27
*271 FILLER_9_34
*272 FILLER_9_57
*273 FILLER_9_63
*274 FILLER_9_70
*275 FILLER_9_77
*276 FILLER_9_8
*277 FILLER_9_84
*278 FILLER_9_91
*279 FILLER_9_98
*280 _06_
*281 _07_
*282 _08_
*283 _09_
*284 _10_
*285 _11_
*286 _12_
*287 _13_
*288 _14_
*289 _15_
*290 _16_
*291 _17_
*292 _18_
*293 _19_
*294 _20_
*295 _21_
*296 _22_
*297 _23_
*298 _24_
*299 _25_
*300 _26_
*301 _27_
*302 _28_
*303 _29_
*304 _30_
*305 _31_
*306 _32_
*307 _33_
*308 _34_
*309 _35_
*310 _36_
*311 _37_
*312 _38_
*313 _39_
*314 fanout39
*315 fanout40
*316 input1
*317 input10
*318 input2
*319 input3
*320 input4
*321 input5
*322 input6
*323 input7
*324 input8
*325 input9
*326 output11
*327 output12
*328 output13
*329 output14
*330 output15
*331 output16
*332 output17
*333 output18
*334 output19
*335 output20
*336 output21
*337 output22
*338 output23
*339 output24
*340 output25
*341 output26
*342 output27
*343 output28
*344 output29
*345 output30
*346 output31
*347 output32
*348 output33
*349 output34
*350 output35
*351 output36
*352 output37
*353 output38

*PORTS
d[0] I
d[1] I
d[2] I
d[3] I
d[4] I
d[5] I
d[6] I
d[7] I
d[8] I
d[9] I
s[4] O
s[5] O
s[6] O
s[7] O
s[8] O
s[9] O
sb[4] O
sb[5] O
sb[6] O
sb[7] O
sb[8] O
sb[9] O
y[0] O
y[10] O
y[11] O
y[12] O
y[13] O
y[14] O
y[15] O
y[1] O
y[2] O
y[3] O
y[4] O
y[5] O
y[6] O
y[7] O
y[8] O
y[9] O

*D_NET *3 0.00182444
*CONN
*P d[0] I
*I *316:A I *D sg13g2_buf_1
*CAP
1 d[0] 0.000904492
2 *316:A 0.000904492
3 *316:A *318:A 1.54556e-05
4 *316:A *77:10 0
*RES
1 d[0] *316:A 29.27 
*END

*D_NET *4 0.00182371
*CONN
*P d[1] I
*I *318:A I *D sg13g2_buf_1
*CAP
1 d[1] 0.000904126
2 *318:A 0.000904126
3 *316:A *318:A 1.54556e-05
*RES
1 d[1] *318:A 29.27 
*END

*D_NET *5 0.00163588
*CONN
*P d[2] I
*I *319:A I *D sg13g2_buf_1
*CAP
1 d[2] 0.000608755
2 *319:A 0.000608755
3 *319:A y[1] 0
4 *319:A y[2] 0
5 *319:A *303:B 0.000209184
6 *319:A *320:A 0
7 *319:A *78:8 0
8 *319:A *80:12 0.000209184
*RES
1 d[2] *319:A 45.5517 
*END

*D_NET *6 0.00132272
*CONN
*P d[3] I
*I *320:A I *D sg13g2_buf_1
*CAP
1 d[3] 0.000572562
2 *320:A 0.000572562
3 *320:A y[15] 0
4 *320:A y[1] 0.000177597
5 *320:A *80:12 0
6 *319:A *320:A 0
*RES
1 d[3] *320:A 45.9637 
*END

*D_NET *7 0.0011004
*CONN
*P d[4] I
*I *321:A I *D sg13g2_buf_1
*CAP
1 d[4] 0.000550201
2 *321:A 0.000550201
3 *321:A s[4] 0
4 *321:A sb[4] 0
5 *321:A *326:A 0
*RES
1 d[4] *321:A 44.6659 
*END

*D_NET *8 0.00277348
*CONN
*P d[5] I
*I *322:A I *D sg13g2_buf_1
*CAP
1 d[5] 0.00136298
2 *322:A 0.00136298
3 *322:A sb[5] 0
4 *322:A *281:A 0
5 *322:A *309:A 0
6 *322:A *327:A 0
7 *322:A *333:A 4.75265e-05
*RES
1 d[5] *322:A 35.1204 
*END

*D_NET *9 0.00267631
*CONN
*P d[6] I
*I *323:A I *D sg13g2_buf_1
*CAP
1 d[6] 0.00129038
2 *323:A 0.00129038
3 *323:A s[5] 0
4 *323:A sb[6] 1.54556e-05
5 *323:A *282:A 0
6 *323:A *334:A 0
7 *323:A *15:10 8.00842e-05
8 *323:A *84:10 0
*RES
1 d[6] *323:A 32.8338 
*END

*D_NET *10 0.0018812
*CONN
*P d[7] I
*I *324:A I *D sg13g2_buf_1
*CAP
1 d[7] 0.000495719
2 *324:A 0.00044488
3 *10:11 0.000940599
4 *324:A sb[7] 0
5 *324:A *283:A 0
6 *324:A *329:A 0
7 *10:11 sb[7] 0
*RES
1 d[7] *10:11 46.077 
2 *10:11 *324:A 24.429 
*END

*D_NET *11 0.00118939
*CONN
*P d[8] I
*I *325:A I *D sg13g2_buf_1
*CAP
1 d[8] 0.000594697
2 *325:A 0.000594697
3 *325:A s[8] 0
4 *325:A sb[8] 0
5 *325:A *312:A 0
6 *325:A *53:8 0
7 *325:A *60:8 0
*RES
1 d[8] *325:A 45.1191 
*END

*D_NET *12 0.00267637
*CONN
*P d[9] I
*I *317:A I *D sg13g2_buf_1
*CAP
1 d[9] 0.00133818
2 *317:A 0.00133818
3 *317:A s[6] 0
4 *317:A s[9] 0
5 *317:A sb[9] 0
6 *317:A *313:A 0
7 *317:A *334:A 0
8 *317:A *48:8 0
*RES
1 d[9] *317:A 33.4312 
*END

*D_NET *13 0.00118083
*CONN
*P s[4] O
*I *326:X O *D sg13g2_buf_1
*CAP
1 s[4] 0.000590416
2 *326:X 0.000590416
3 s[4] sb[4] 0
4 s[4] *326:A 0
5 *321:A s[4] 0
*RES
1 *326:X s[4] 45.8916 
*END

*D_NET *14 0.00254412
*CONN
*P s[5] O
*I *327:X O *D sg13g2_buf_1
*CAP
1 s[5] 0.00118932
2 *327:X 0.00118932
3 s[5] sb[5] 0
4 s[5] *309:A 0
5 s[5] *327:A 0.000165487
6 *323:A s[5] 0
*RES
1 *327:X s[5] 32.0819 
*END

*D_NET *15 0.00348973
*CONN
*P s[6] O
*I *328:X O *D sg13g2_buf_1
*CAP
1 s[6] 0.00104137
2 *328:X 0.000169471
3 *15:10 0.00121084
4 s[6] sb[6] 0.000705981
5 *15:10 *310:A 0.000234224
6 *15:10 *84:10 4.77537e-05
7 *317:A s[6] 0
8 *323:A *15:10 8.00842e-05
*RES
1 *328:X *15:10 41.8746 
2 *15:10 s[6] 30.8871 
*END

*D_NET *16 0.00189984
*CONN
*P s[7] O
*I *329:X O *D sg13g2_buf_1
*CAP
1 s[7] 0.000885613
2 *329:X 0.000885613
3 s[7] sb[7] 0.000128618
*RES
1 *329:X s[7] 30.6433 
*END

*D_NET *17 0.000642597
*CONN
*P s[8] O
*I *330:X O *D sg13g2_buf_1
*CAP
1 s[8] 0.000321298
2 *330:X 0.000321298
3 *325:A s[8] 0
*RES
1 *330:X s[8] 43.1621 
*END

*D_NET *18 0.00307996
*CONN
*P s[9] O
*I *331:X O *D sg13g2_buf_1
*CAP
1 s[9] 0.00117306
2 *331:X 0.00117306
3 s[9] sb[9] 0.000670695
4 s[9] *313:A 4.77425e-05
5 s[9] *331:A 0
6 s[9] *48:8 1.54008e-05
7 *317:A s[9] 0
*RES
1 *331:X s[9] 33.0919 
*END

*D_NET *19 0.000860549
*CONN
*P sb[4] O
*I *332:X O *D sg13g2_buf_1
*CAP
1 sb[4] 0.000430275
2 *332:X 0.000430275
3 sb[4] *76:8 0
4 s[4] sb[4] 0
5 *321:A sb[4] 0
*RES
1 *332:X sb[4] 44.4702 
*END

*D_NET *20 0.00232153
*CONN
*P sb[5] O
*I *333:X O *D sg13g2_buf_1
*CAP
1 sb[5] 0.00116077
2 *333:X 0.00116077
3 s[5] sb[5] 0
4 *322:A sb[5] 0
*RES
1 *333:X sb[5] 30.6296 
*END

*D_NET *21 0.00338901
*CONN
*P sb[6] O
*I *334:X O *D sg13g2_buf_1
*CAP
1 sb[6] 0.00133379
2 *334:X 0.00133379
3 sb[6] *334:A 0
4 s[6] sb[6] 0.000705981
5 *323:A sb[6] 1.54556e-05
*RES
1 *334:X sb[6] 32.1849 
*END

*D_NET *22 0.00193645
*CONN
*P sb[7] O
*I *335:X O *D sg13g2_buf_1
*CAP
1 sb[7] 0.000903917
2 *335:X 0.000903917
3 s[7] sb[7] 0.000128618
4 *324:A sb[7] 0
5 *10:11 sb[7] 0
*RES
1 *335:X sb[7] 29.8571 
*END

*D_NET *23 0.000643361
*CONN
*P sb[8] O
*I *336:X O *D sg13g2_buf_1
*CAP
1 sb[8] 0.000321681
2 *336:X 0.000321681
3 *325:A sb[8] 0
*RES
1 *336:X sb[8] 43.1621 
*END

*D_NET *24 0.00280031
*CONN
*P sb[9] O
*I *337:X O *D sg13g2_buf_1
*CAP
1 sb[9] 0.00106481
2 *337:X 0.00106481
3 sb[9] *48:8 0
4 s[9] sb[9] 0.000670695
5 *317:A sb[9] 0
*RES
1 *337:X sb[9] 30.3824 
*END

*D_NET *25 0.00169585
*CONN
*P y[0] O
*I *338:X O *D sg13g2_buf_1
*CAP
1 y[0] 0.000840196
2 *338:X 0.000840196
3 y[0] y[8] 1.54556e-05
*RES
1 *338:X y[0] 28.6211 
*END

*D_NET *26 0.000781935
*CONN
*P y[10] O
*I *339:X O *D sg13g2_buf_1
*CAP
1 y[10] 0.000390968
2 *339:X 0.000390968
3 y[10] y[2] 0
4 y[10] *339:A 0
*RES
1 *339:X y[10] 43.6977 
*END

*D_NET *27 0.00144669
*CONN
*P y[11] O
*I *340:X O *D sg13g2_buf_1
*CAP
1 y[11] 0.00053776
2 *340:X 0.00053776
3 y[11] y[3] 0.000128662
4 y[11] y[7] 0.000242511
5 y[11] *340:A 0
*RES
1 *340:X y[11] 45.9637 
*END

*D_NET *28 0.00117059
*CONN
*P y[12] O
*I *341:X O *D sg13g2_buf_1
*CAP
1 y[12] 0.000585294
2 *341:X 0.000585294
3 y[12] y[4] 0
4 y[12] *65:12 0
5 y[12] *73:14 0
*RES
1 *341:X y[12] 45.6547 
*END

*D_NET *29 0.000880389
*CONN
*P y[13] O
*I *342:X O *D sg13g2_buf_1
*CAP
1 y[13] 0.000440194
2 *342:X 0.000440194
3 y[13] y[5] 0
4 y[13] y[6] 0
5 y[13] *74:12 0
*RES
1 *342:X y[13] 44.5732 
*END

*D_NET *30 0.000799332
*CONN
*P y[14] O
*I *343:X O *D sg13g2_buf_1
*CAP
1 y[14] 0.000399666
2 *343:X 0.000399666
3 y[14] y[6] 0
4 y[14] *67:14 0
*RES
1 *343:X y[14] 43.8007 
*END

*D_NET *31 0.00171053
*CONN
*P y[15] O
*I *344:X O *D sg13g2_buf_1
*CAP
1 y[15] 0.000764419
2 *344:X 0.000764419
3 y[15] y[3] 0
4 y[15] y[7] 0
5 y[15] *294:B 0
6 y[15] *299:B 0
7 y[15] *303:C 0
8 y[15] *344:A 0
9 y[15] *69:8 0
10 y[15] *70:8 0
11 y[15] *79:31 0.000181694
12 *320:A y[15] 0
*RES
1 *344:X y[15] 47.5911 
*END

*D_NET *32 0.00140198
*CONN
*P y[1] O
*I *345:X O *D sg13g2_buf_1
*CAP
1 y[1] 0.00061219
2 *345:X 0.00061219
3 y[1] y[9] 0
4 y[1] *345:A 0
5 y[1] *80:12 0
6 *319:A y[1] 0
7 *320:A y[1] 0.000177597
*RES
1 *345:X y[1] 45.2118 
*END

*D_NET *33 0.00152359
*CONN
*P y[2] O
*I *346:X O *D sg13g2_buf_1
*CAP
1 y[2] 0.000561163
2 *346:X 0.000561163
3 y[2] y[9] 0
4 y[2] *346:A 0
5 y[2] *63:10 0.000128247
6 y[2] *78:8 0.000128248
7 y[2] *80:12 0.000144767
8 y[10] y[2] 0
9 *319:A y[2] 0
*RES
1 *346:X y[2] 45.1191 
*END

*D_NET *34 0.00150346
*CONN
*P y[3] O
*I *347:X O *D sg13g2_buf_1
*CAP
1 y[3] 0.000676351
2 *347:X 0.000676351
3 y[3] y[7] 0
4 y[3] *303:C 2.20966e-05
5 y[3] *340:A 0
6 y[3] *347:A 0
7 y[3] *64:10 0
8 y[11] y[3] 0.000128662
9 y[15] y[3] 0
*RES
1 *347:X y[3] 46.4066 
*END

*D_NET *35 0.000895079
*CONN
*P y[4] O
*I *348:X O *D sg13g2_buf_1
*CAP
1 y[4] 0.000447539
2 *348:X 0.000447539
3 y[4] *73:14 0
4 y[12] y[4] 0
*RES
1 *348:X y[4] 44.2333 
*END

*D_NET *36 0.000880599
*CONN
*P y[5] O
*I *349:X O *D sg13g2_buf_1
*CAP
1 y[5] 0.000440299
2 *349:X 0.000440299
3 y[5] y[6] 0
4 y[13] y[5] 0
*RES
1 *349:X y[5] 43.5844 
*END

*D_NET *37 0.00144488
*CONN
*P y[6] O
*I *350:X O *D sg13g2_buf_1
*CAP
1 y[6] 0.000593779
2 *350:X 0.000593779
3 y[6] *67:14 0.000128663
4 y[6] *74:12 0.000128662
5 y[6] *75:14 0
6 y[13] y[6] 0
7 y[14] y[6] 0
8 y[5] y[6] 0
*RES
1 *350:X y[6] 45.2221 
*END

*D_NET *38 0.00158927
*CONN
*P y[7] O
*I *351:X O *D sg13g2_buf_1
*CAP
1 y[7] 0.000616969
2 *351:X 0.000616969
3 y[7] *303:C 0
4 y[7] *340:A 0.000112826
5 y[7] *347:A 0
6 y[11] y[7] 0.000242511
7 y[15] y[7] 0
8 y[3] y[7] 0
*RES
1 *351:X y[7] 45.7474 
*END

*D_NET *39 0.00169585
*CONN
*P y[8] O
*I *352:X O *D sg13g2_buf_1
*CAP
1 y[8] 0.000840196
2 *352:X 0.000840196
3 y[0] y[8] 1.54556e-05
*RES
1 *352:X y[8] 28.6211 
*END

*D_NET *40 0.000856745
*CONN
*P y[9] O
*I *353:X O *D sg13g2_buf_1
*CAP
1 y[9] 0.000428373
2 *353:X 0.000428373
3 y[1] y[9] 0
4 y[2] y[9] 0
*RES
1 *353:X y[9] 43.4814 
*END

*D_NET *41 0.0105424
*CONN
*I *306:A I *D sg13g2_nor3_1
*I *305:A I *D sg13g2_nor3_1
*I *301:A I *D sg13g2_nor3_1
*I *302:A I *D sg13g2_nor3_1
*I *303:A I *D sg13g2_nor3_1
*I *307:A I *D sg13g2_nor2_1
*I *304:A I *D sg13g2_nor4_1
*I *300:A I *D sg13g2_nor4_1
*I *286:Y O *D sg13g2_inv_1
*CAP
1 *306:A 0.000140968
2 *305:A 8.85913e-05
3 *301:A 3.00022e-05
4 *302:A 0
5 *303:A 0
6 *307:A 0
7 *304:A 2.77263e-05
8 *300:A 0.000223945
9 *286:Y 0
10 *41:82 0.000522419
11 *41:66 0.000172653
12 *41:58 0.000359515
13 *41:44 0.000129008
14 *41:38 0.00062227
15 *41:32 0.00140688
16 *41:26 0.00114834
17 *41:6 0.000461376
18 *41:4 0.000308425
19 *300:A *300:C 0
20 *300:A *47:8 1.54556e-05
21 *300:A *47:16 0
22 *300:A *58:8 0
23 *306:A *297:B 0
24 *306:A *306:B 0
25 *306:A *42:39 0
26 *41:6 *47:16 0
27 *41:6 *47:27 0
28 *41:26 *286:A 0.000112289
29 *41:26 *47:27 0
30 *41:32 *43:10 0.000319808
31 *41:32 *47:27 0.00130738
32 *41:32 *47:29 0.000233463
33 *41:32 *47:35 0.000394349
34 *41:32 *79:64 0.000795322
35 *41:38 *290:C 0.00012816
36 *41:38 *303:B 0
37 *41:38 *347:A 8.0216e-05
38 *41:38 *43:10 0.00018211
39 *41:38 *79:31 0
40 *41:38 *79:64 0.000447183
41 *41:44 *299:B 7.52158e-05
42 *41:44 *303:C 0.000128247
43 *41:44 *45:8 0.000287759
44 *41:58 *301:B 0
45 *41:58 *315:A 0
46 *41:58 *81:6 0
47 *41:66 *44:10 0.000287256
48 *41:66 *81:38 0
49 *41:82 *296:A 0
50 *41:82 *43:32 0
51 *41:82 *47:27 0.000106064
52 *41:82 *79:75 0
*RES
1 *286:Y *41:4 20 
2 *41:4 *41:6 2.0497 
3 *41:6 *300:A 22.4308 
4 *41:6 *304:A 20.3502 
5 *41:4 *41:26 20.9682 
6 *41:26 *41:32 10.9077 
7 *41:32 *41:38 25.2736 
8 *41:38 *41:44 41.8334 
9 *41:44 *307:A 20 
10 *41:38 *303:A 20 
11 *41:32 *41:58 21.1845 
12 *41:58 *41:66 41.6583 
13 *41:66 *302:A 20 
14 *41:58 *301:A 20.309 
15 *41:26 *41:82 22.575 
16 *41:82 *305:A 20.7519 
17 *41:82 *306:A 21.1845 
*END

*D_NET *42 0.0029023
*CONN
*I *297:B I *D sg13g2_nor3_1
*I *296:B I *D sg13g2_nor3_1
*I *306:B I *D sg13g2_nor3_1
*I *305:B I *D sg13g2_nor3_1
*I *295:D I *D sg13g2_nor4_1
*I *304:D I *D sg13g2_nor4_1
*I *287:Y O *D sg13g2_inv_1
*CAP
1 *297:B 0.000174542
2 *296:B 0.00020401
3 *306:B 7.29127e-05
4 *305:B 0
5 *295:D 0
6 *304:D 4.87725e-05
7 *287:Y 0.000293807
8 *42:39 0.000415114
9 *42:32 0.000336419
10 *42:21 0.00022713
11 *42:8 0.000196939
12 *296:B *296:A 0
13 *296:B *296:C 0.000112727
14 *297:B *79:81 0.000111025
15 *304:D *58:81 0.000235142
16 *304:D *65:12 0.000181279
17 *304:D *81:25 0
18 *42:8 *79:81 0
19 *42:21 *58:81 5.34469e-05
20 *42:21 *65:12 0.00012816
21 *42:32 *295:B 0
22 *42:32 *305:C 1.54008e-05
23 *42:32 *73:8 4.77347e-05
24 *42:32 *79:81 0
25 *42:39 *296:C 0
26 *42:39 *305:C 4.77425e-05
27 *306:A *297:B 0
28 *306:A *306:B 0
29 *306:A *42:39 0
*RES
1 *287:Y *42:8 41.1845 
2 *42:8 *304:D 41.0918 
3 *42:8 *42:21 20.5974 
4 *42:21 *295:D 20 
5 *42:21 *42:32 2.5338 
6 *42:32 *305:B 20 
7 *42:32 *42:39 1.1845 
8 *42:39 *306:B 20.7519 
9 *42:39 *296:B 22.0909 
10 *287:Y *297:B 41.751 
*END

*D_NET *43 0.00857764
*CONN
*I *296:C I *D sg13g2_nor3_1
*I *305:C I *D sg13g2_nor3_1
*I *301:C I *D sg13g2_nor3_1
*I *290:C I *D sg13g2_nor3_1
*I *289:Y O *D sg13g2_nand2b_1
*CAP
1 *296:C 0.000227706
2 *305:C 3.16873e-05
3 *301:C 0.000179261
4 *290:C 7.37551e-05
5 *289:Y 4.08322e-05
6 *43:32 0.00077139
7 *43:10 0.000490613
8 *43:8 0.000790427
9 *290:C *294:B 1.54556e-05
10 *290:C *69:8 0
11 *290:C *81:71 4.78685e-05
12 *296:C *66:12 0.000288502
13 *296:C *73:14 0
14 *301:C *301:B 0.000112138
15 *301:C *81:42 0
16 *43:10 *47:29 0.000105719
17 *43:10 *47:35 0.000396405
18 *43:10 *69:8 0
19 *43:10 *81:12 0.000128154
20 *43:10 *81:25 0.000661544
21 *43:32 *47:27 0.00139142
22 *43:32 *47:29 0.000127744
23 *43:32 *66:12 0.00012816
24 *43:32 *73:14 0
25 *43:32 *81:25 0.00176291
26 *296:B *296:C 0.000112727
27 *41:32 *43:10 0.000319808
28 *41:38 *290:C 0.00012816
29 *41:38 *43:10 0.00018211
30 *41:82 *43:32 0
31 *42:32 *305:C 1.54008e-05
32 *42:39 *296:C 0
33 *42:39 *305:C 4.77425e-05
*RES
1 *289:Y *43:8 40.3193 
2 *43:8 *43:10 4.7998 
3 *43:10 *290:C 40.9167 
4 *43:10 *301:C 41.6171 
5 *43:8 *43:32 9.7438 
6 *43:32 *305:C 40.3193 
7 *43:32 *296:C 42.9561 
*END

*D_NET *44 0.00432286
*CONN
*I *306:C I *D sg13g2_nor3_1
*I *297:C I *D sg13g2_nor3_1
*I *302:C I *D sg13g2_nor3_1
*I *292:C I *D sg13g2_nor3_1
*I *291:Y O *D sg13g2_nand2b_1
*CAP
1 *306:C 9.75178e-05
2 *297:C 0
3 *302:C 0
4 *292:C 0.000124627
5 *291:Y 0.000150613
6 *44:28 0.000970353
7 *44:10 0.000556044
8 *44:8 0.00145487
9 *292:C *78:8 0
10 *292:C *81:48 0.00023464
11 *306:C *296:A 0.000265575
12 *306:C *75:14 0
13 *44:8 *315:A 0
14 *44:10 *79:64 0
15 *44:10 *80:27 0
16 *44:10 *81:48 5.30319e-05
17 *44:28 *296:A 0.000128334
18 *44:28 *75:14 0
19 *44:28 *79:64 0
20 *44:28 *79:75 0
21 *44:28 *80:27 0
22 *41:66 *44:10 0.000287256
*RES
1 *291:Y *44:8 41.4008 
2 *44:8 *44:10 4.7998 
3 *44:10 *292:C 41.339 
4 *44:10 *302:C 40 
5 *44:8 *44:28 9.7438 
6 *44:28 *297:C 40 
7 *44:28 *306:C 41.339 
*END

*D_NET *45 0.00177194
*CONN
*I *294:C I *D sg13g2_nor3_1
*I *303:C I *D sg13g2_nor3_1
*I *293:Y O *D sg13g2_nand2_1
*CAP
1 *294:C 3.13955e-05
2 *303:C 0.000129494
3 *293:Y 0.000336514
4 *45:8 0.000497403
5 *294:C *347:A 4.77425e-05
6 *303:C *76:8 0
7 *45:8 *299:B 0
8 *45:8 *46:10 0
9 *45:8 *58:34 0.000291291
10 *45:8 *69:16 0
11 *45:8 *76:8 0
12 y[15] *303:C 0
13 y[3] *303:C 2.20966e-05
14 y[7] *303:C 0
15 *41:44 *303:C 0.000128247
16 *41:44 *45:8 0.000287759
*RES
1 *293:Y *45:8 44.5526 
2 *45:8 *303:C 41.6583 
3 *45:8 *294:C 40.3193 
*END

*D_NET *46 0.00119315
*CONN
*I *307:B I *D sg13g2_nor2_1
*I *299:B I *D sg13g2_nor2_1
*I *298:Y O *D sg13g2_nand3_1
*CAP
1 *307:B 2.37423e-05
2 *299:B 0.000299566
3 *298:Y 0.000171676
4 *46:10 0.000494985
5 *299:B *299:A 8.01445e-05
6 *299:B *332:A 0
7 *299:B *69:8 0
8 *299:B *69:16 0
9 *299:B *79:31 4.78195e-05
10 *307:B *69:16 0
11 *46:10 *69:8 0
12 *46:10 *81:12 0
13 y[15] *299:B 0
14 *41:44 *299:B 7.52158e-05
15 *45:8 *299:B 0
16 *45:8 *46:10 0
*RES
1 *298:Y *46:10 41.9055 
2 *46:10 *299:B 43.2445 
3 *46:10 *307:B 40.3193 
*END

*D_NET *47 0.00975579
*CONN
*I *300:B I *D sg13g2_nor4_1
*I *295:B I *D sg13g2_nor4_1
*I *288:B I *D sg13g2_nor4_1
*I *289:B I *D sg13g2_nand2b_1
*I *291:A_N I *D sg13g2_nand2b_1
*I *293:A I *D sg13g2_nand2_1
*I *298:A I *D sg13g2_nand3_1
*I *304:B I *D sg13g2_nor4_1
*I *316:X O *D sg13g2_buf_1
*CAP
1 *300:B 0
2 *295:B 0.000302053
3 *288:B 0
4 *289:B 5.36784e-05
5 *291:A_N 4.47784e-05
6 *293:A 4.95132e-05
7 *298:A 0
8 *304:B 0
9 *316:X 0.000553951
10 *47:67 0.000408805
11 *47:35 0.000381844
12 *47:29 0.000426192
13 *47:27 0.000641793
14 *47:16 0.000708575
15 *47:12 0.000355685
16 *47:8 0.000633342
17 *289:B *289:A_N 1.54008e-05
18 *291:A_N *291:B 1.54008e-05
19 *295:B *288:A 0.000332594
20 *295:B *338:A 0
21 *295:B *62:8 0
22 *47:8 *300:C 4.78192e-05
23 *47:8 *58:8 0
24 *47:8 *77:10 0
25 *47:12 *288:D 0
26 *47:12 *58:60 7.51285e-05
27 *47:12 *58:71 0.000106064
28 *47:12 *69:16 0
29 *47:16 *58:75 0.000242203
30 *47:27 *58:75 4.79124e-05
31 *47:27 *79:81 0
32 *47:35 *291:B 0
33 *47:35 *298:C 0
34 *47:35 *58:28 0
35 *47:67 *288:C 0.000159839
36 *47:67 *288:D 0
37 *47:67 *58:71 7.52158e-05
38 *47:67 *62:8 0
39 *300:A *47:8 1.54556e-05
40 *300:A *47:16 0
41 *41:6 *47:16 0
42 *41:6 *47:27 0
43 *41:26 *47:27 0
44 *41:32 *47:27 0.00130738
45 *41:32 *47:29 0.000233463
46 *41:32 *47:35 0.000394349
47 *41:82 *47:27 0.000106064
48 *42:32 *295:B 0
49 *43:10 *47:29 0.000105719
50 *43:10 *47:35 0.000396405
51 *43:32 *47:27 0.00139142
52 *43:32 *47:29 0.000127744
*RES
1 *316:X *47:8 25.8607 
2 *47:8 *47:12 20.8446 
3 *47:12 *47:16 21.8334 
4 *47:16 *304:B 20 
5 *47:16 *47:27 29.2288 
6 *47:27 *47:29 1.0918 
7 *47:29 *47:35 24.532 
8 *47:35 *298:A 20 
9 *47:35 *293:A 20.5974 
10 *47:29 *291:A_N 40.5356 
11 *47:27 *289:B 40.5356 
12 *47:12 *47:67 1.339 
13 *47:67 *288:B 40 
14 *47:67 *295:B 43.3784 
15 *47:8 *300:B 20 
*END

*D_NET *48 0.00115723
*CONN
*I *313:A I *D sg13g2_buf_1
*I *285:A I *D sg13g2_inv_1
*I *317:X O *D sg13g2_buf_1
*CAP
1 *313:A 2.47392e-05
2 *285:A 0
3 *317:X 0.000168297
4 *48:14 0.000129956
5 *48:8 0.000322993
6 *48:14 *61:8 0.000448099
7 s[9] *313:A 4.77425e-05
8 s[9] *48:8 1.54008e-05
9 sb[9] *48:8 0
10 *317:A *313:A 0
11 *317:A *48:8 0
*RES
1 *317:X *48:8 21.751 
2 *48:8 *48:14 42.0806 
3 *48:14 *285:A 20 
4 *48:8 *313:A 20.3193 
*END

*D_NET *49 0.000333241
*CONN
*I *326:A I *D sg13g2_buf_1
*I *308:X O *D sg13g2_buf_1
*CAP
1 *326:A 0.00016662
2 *308:X 0.00016662
3 *326:A *280:A 0
4 *326:A *332:A 0
5 s[4] *326:A 0
6 *321:A *326:A 0
*RES
1 *308:X *326:A 41.6171 
*END

*D_NET *50 0.000669646
*CONN
*I *327:A I *D sg13g2_buf_1
*I *309:X O *D sg13g2_buf_1
*CAP
1 *327:A 0.000252079
2 *309:X 0.000252079
3 s[5] *327:A 0.000165487
4 *322:A *327:A 0
*RES
1 *309:X *327:A 42.9149 
*END

*D_NET *51 0.000472555
*CONN
*I *328:A I *D sg13g2_buf_1
*I *310:X O *D sg13g2_buf_1
*CAP
1 *328:A 3.35113e-05
2 *310:X 7.44148e-05
3 *51:8 0.000107926
4 *51:8 *282:A 7.50949e-05
5 *51:8 *310:A 0.000181608
*RES
1 *310:X *51:8 41.0918 
2 *51:8 *328:A 40.3193 
*END

*D_NET *52 0.000714965
*CONN
*I *329:A I *D sg13g2_buf_1
*I *311:X O *D sg13g2_buf_1
*CAP
1 *329:A 7.13446e-05
2 *311:X 0.000286138
3 *52:8 0.000357483
4 *52:8 *59:8 0
5 *324:A *329:A 0
*RES
1 *311:X *52:8 43.0694 
2 *52:8 *329:A 40.7519 
*END

*D_NET *53 0.000402379
*CONN
*I *330:A I *D sg13g2_buf_1
*I *312:X O *D sg13g2_buf_1
*CAP
1 *330:A 3.21956e-05
2 *312:X 0.000168994
3 *53:8 0.00020119
4 *330:A *312:A 0
5 *53:8 *60:8 0
6 *325:A *53:8 0
*RES
1 *312:X *53:8 42.0806 
2 *53:8 *330:A 40.3193 
*END

*D_NET *54 0.000257456
*CONN
*I *331:A I *D sg13g2_buf_1
*I *313:X O *D sg13g2_buf_1
*CAP
1 *331:A 0.000128728
2 *313:X 0.000128728
3 s[9] *331:A 0
*RES
1 *313:X *331:A 41.4111 
*END

*D_NET *55 0.000338743
*CONN
*I *332:A I *D sg13g2_buf_1
*I *280:Y O *D sg13g2_inv_1
*CAP
1 *332:A 0.000169372
2 *280:Y 0.000169372
3 *332:A *340:A 0
4 *332:A *347:A 0
5 *299:B *332:A 0
6 *326:A *332:A 0
*RES
1 *280:Y *332:A 42.1218 
*END

*D_NET *56 0.000240095
*CONN
*I *333:A I *D sg13g2_buf_1
*I *281:Y O *D sg13g2_inv_1
*CAP
1 *333:A 9.6284e-05
2 *281:Y 9.6284e-05
3 *322:A *333:A 4.75265e-05
*RES
1 *281:Y *333:A 41.1639 
*END

*D_NET *57 0.000917633
*CONN
*I *334:A I *D sg13g2_buf_1
*I *282:Y O *D sg13g2_inv_1
*CAP
1 *334:A 0.000189773
2 *282:Y 0.000269044
3 *57:8 0.000458817
4 *57:8 *282:A 0
5 sb[6] *334:A 0
6 *317:A *334:A 0
7 *323:A *334:A 0
*RES
1 *282:Y *57:8 42.575 
2 *57:8 *334:A 41.6171 
*END

*D_NET *58 0.00615793
*CONN
*I *288:C I *D sg13g2_nor4_1
*I *304:C I *D sg13g2_nor4_1
*I *295:C I *D sg13g2_nor4_1
*I *300:C I *D sg13g2_nor4_1
*I *289:A_N I *D sg13g2_nand2b_1
*I *291:B I *D sg13g2_nand2b_1
*I *293:B I *D sg13g2_nand2_1
*I *298:B I *D sg13g2_nand3_1
*I *318:X O *D sg13g2_buf_1
*CAP
1 *288:C 8.10731e-05
2 *304:C 0
3 *295:C 0
4 *300:C 5.42315e-05
5 *289:A_N 2.45726e-05
6 *291:B 2.04688e-05
7 *293:B 0
8 *298:B 0
9 *318:X 0.00051935
10 *58:81 8.68004e-05
11 *58:75 0.000249738
12 *58:71 0.000299175
13 *58:60 0.000245195
14 *58:34 0.000105181
15 *58:28 0.000303312
16 *58:20 0.000318757
17 *58:14 0.000806084
18 *58:8 0.0013365
19 *288:C *338:A 0
20 *58:14 *69:16 0
21 *58:20 *81:25 0.000342629
22 *58:60 *69:16 0
23 *58:75 *288:A 0
24 *58:75 *79:81 0
25 *58:81 *62:8 0
26 *289:B *289:A_N 1.54008e-05
27 *291:A_N *291:B 1.54008e-05
28 *300:A *300:C 0
29 *300:A *58:8 0
30 *304:D *58:81 0.000235142
31 *42:21 *58:81 5.34469e-05
32 *45:8 *58:34 0.000291291
33 *47:8 *300:C 4.78192e-05
34 *47:8 *58:8 0
35 *47:12 *58:60 7.51285e-05
36 *47:12 *58:71 0.000106064
37 *47:16 *58:75 0.000242203
38 *47:27 *58:75 4.79124e-05
39 *47:35 *291:B 0
40 *47:35 *58:28 0
41 *47:67 *288:C 0.000159839
42 *47:67 *58:71 7.52158e-05
*RES
1 *318:X *58:8 45.7268 
2 *58:8 *58:14 27.8692 
3 *58:14 *58:20 41.5862 
4 *58:20 *58:28 2.8531 
5 *58:28 *58:34 41.5862 
6 *58:34 *298:B 20 
7 *58:28 *293:B 20 
8 *58:20 *291:B 20.3193 
9 *58:14 *289:A_N 20.3193 
10 *58:8 *58:60 1.5862 
11 *58:60 *300:C 40.5356 
12 *58:60 *58:71 0.8446 
13 *58:71 *58:75 21.8334 
14 *58:75 *58:81 41.5862 
15 *58:81 *295:C 20 
16 *58:75 *304:C 20 
17 *58:71 *288:C 41.3802 
*END

*D_NET *59 0.000607793
*CONN
*I *335:A I *D sg13g2_buf_1
*I *283:Y O *D sg13g2_inv_1
*CAP
1 *335:A 0
2 *283:Y 0.000303897
3 *59:8 0.000303897
4 *52:8 *59:8 0
*RES
1 *283:Y *59:8 43.3166 
2 *59:8 *335:A 40 
*END

*D_NET *60 0.00033774
*CONN
*I *336:A I *D sg13g2_buf_1
*I *284:Y O *D sg13g2_inv_1
*CAP
1 *336:A 0
2 *284:Y 0.00016887
3 *60:8 0.00016887
4 *325:A *60:8 0
5 *53:8 *60:8 0
*RES
1 *284:Y *60:8 42.0806 
2 *60:8 *336:A 40 
*END

*D_NET *61 0.000923082
*CONN
*I *337:A I *D sg13g2_buf_1
*I *285:Y O *D sg13g2_inv_1
*CAP
1 *337:A 0
2 *285:Y 0.000237492
3 *61:8 0.000237492
4 *48:14 *61:8 0.000448099
*RES
1 *285:Y *61:8 43.3166 
2 *61:8 *337:A 40 
*END

*D_NET *62 0.00149972
*CONN
*I *338:A I *D sg13g2_buf_1
*I *288:Y O *D sg13g2_nor4_1
*CAP
1 *338:A 0.000565585
2 *288:Y 0.000184273
3 *62:8 0.000749858
4 *338:A *288:D 0
5 *62:8 *65:12 0
6 *288:C *338:A 0
7 *295:B *338:A 0
8 *295:B *62:8 0
9 *47:67 *62:8 0
10 *58:81 *62:8 0
*RES
1 *288:Y *62:8 41.8334 
2 *62:8 *338:A 46.3757 
*END

*D_NET *63 0.0010581
*CONN
*I *339:A I *D sg13g2_buf_1
*I *302:Y O *D sg13g2_nor3_1
*CAP
1 *339:A 0.000113127
2 *302:Y 0.000239317
3 *63:10 0.000352444
4 *339:A *346:A 0
5 *339:A *80:12 0.000144882
6 *63:10 *78:8 0
7 *63:10 *79:8 8.00842e-05
8 y[10] *339:A 0
9 y[2] *63:10 0.000128247
*RES
1 *302:Y *63:10 42.369 
2 *63:10 *339:A 41.1845 
*END

*D_NET *64 0.00119165
*CONN
*I *340:A I *D sg13g2_buf_1
*I *303:Y O *D sg13g2_nor3_1
*CAP
1 *340:A 0.000243441
2 *303:Y 0.00029597
3 *64:10 0.000539411
4 *340:A *82:8 0
5 *64:10 *347:A 0
6 *64:10 *76:8 0
7 y[11] *340:A 0
8 y[3] *340:A 0
9 y[3] *64:10 0
10 y[7] *340:A 0.000112826
11 *332:A *340:A 0
*RES
1 *303:Y *64:10 42.5235 
2 *64:10 *340:A 42.6162 
*END

*D_NET *65 0.00528027
*CONN
*I *341:A I *D sg13g2_buf_1
*I *304:Y O *D sg13g2_nor4_1
*CAP
1 *341:A 0
2 *304:Y 0
3 *65:12 0.00103172
4 *65:6 0.00103172
5 *65:12 *73:14 0.0029074
6 *65:12 *81:25 0
7 y[12] *65:12 0
8 *304:D *65:12 0.000181279
9 *42:21 *65:12 0.00012816
10 *62:8 *65:12 0
*RES
1 *304:Y *65:6 40 
2 *65:6 *65:12 36.3358 
3 *65:12 *341:A 20 
*END

*D_NET *66 0.00274353
*CONN
*I *342:A I *D sg13g2_buf_1
*I *305:Y O *D sg13g2_nor3_1
*CAP
1 *342:A 0
2 *305:Y 0
3 *66:12 0.00116344
4 *66:6 0.00116344
5 *66:12 *296:A 0
6 *66:12 *73:14 0
7 *66:12 *74:12 0
8 *66:12 *75:14 0
9 *296:C *66:12 0.000288502
10 *43:32 *66:12 0.00012816
*RES
1 *305:Y *66:6 40 
2 *66:6 *66:12 35.0689 
3 *66:12 *342:A 20 
*END

*D_NET *67 0.004943
*CONN
*I *343:A I *D sg13g2_buf_1
*I *306:Y O *D sg13g2_nor3_1
*CAP
1 *343:A 0
2 *306:Y 5.31582e-05
3 *67:14 0.000953757
4 *67:8 0.00100691
5 *67:8 *75:8 0
6 *67:8 *80:27 0
7 *67:14 *74:12 0
8 *67:14 *75:14 0.0028005
9 y[14] *67:14 0
10 y[6] *67:14 0.000128663
*RES
1 *306:Y *67:8 40.5356 
2 *67:8 *67:14 35.1307 
3 *67:14 *343:A 20 
*END

*D_NET *68 0.000302674
*CONN
*I *344:A I *D sg13g2_buf_1
*I *307:Y O *D sg13g2_nor2_1
*CAP
1 *344:A 0.000151337
2 *307:Y 0.000151337
3 *344:A *294:B 0
4 *344:A *315:A 0
5 *344:A *69:16 0
6 y[15] *344:A 0
*RES
1 *307:Y *344:A 41.4008 
*END

*D_NET *69 0.0046478
*CONN
*I *315:A I *D sg13g2_buf_1
*I *288:D I *D sg13g2_nor4_1
*I *300:D I *D sg13g2_nor4_1
*I *319:X O *D sg13g2_buf_1
*CAP
1 *315:A 0.000270192
2 *288:D 0.000160274
3 *300:D 0
4 *319:X 0.000370326
5 *69:16 0.00139444
6 *69:10 0.00150436
7 *69:8 0.000370326
8 *288:D *77:10 0
9 *315:A *294:B 0
10 *315:A *298:C 8.0216e-05
11 *315:A *81:6 4.74163e-05
12 *315:A *81:12 0.000175709
13 *69:8 *81:12 0
14 *69:16 *298:C 0.000274545
15 *69:16 *79:31 0
16 y[15] *69:8 0
17 *290:C *69:8 0
18 *299:B *69:8 0
19 *299:B *69:16 0
20 *307:B *69:16 0
21 *338:A *288:D 0
22 *344:A *315:A 0
23 *344:A *69:16 0
24 *41:58 *315:A 0
25 *43:10 *69:8 0
26 *44:8 *315:A 0
27 *45:8 *69:16 0
28 *46:10 *69:8 0
29 *47:12 *288:D 0
30 *47:12 *69:16 0
31 *47:67 *288:D 0
32 *58:14 *69:16 0
33 *58:60 *69:16 0
*RES
1 *319:X *69:8 43.5638 
2 *69:8 *69:10 20 
3 *69:10 *69:16 33.9874 
4 *69:16 *300:D 40 
5 *69:16 *288:D 41.6222 
6 *69:10 *315:A 22.8325 
*END

*D_NET *70 0.000584541
*CONN
*I *345:A I *D sg13g2_buf_1
*I *290:Y O *D sg13g2_nor3_1
*CAP
1 *345:A 3.13548e-05
2 *290:Y 0.00023699
3 *70:8 0.000268344
4 *345:A *80:12 4.78521e-05
5 y[15] *70:8 0
6 y[1] *345:A 0
*RES
1 *290:Y *70:8 42.0806 
2 *70:8 *345:A 40.3193 
*END

*D_NET *71 0.000381177
*CONN
*I *346:A I *D sg13g2_buf_1
*I *292:Y O *D sg13g2_nor3_1
*CAP
1 *346:A 0.000190589
2 *292:Y 0.000190589
3 *346:A *314:A 0
4 *346:A *79:8 0
5 *346:A *80:12 0
6 y[2] *346:A 0
7 *339:A *346:A 0
*RES
1 *292:Y *346:A 41.4323 
*END

*D_NET *72 0.000805838
*CONN
*I *347:A I *D sg13g2_buf_1
*I *294:Y O *D sg13g2_nor3_1
*CAP
1 *347:A 0.00033894
2 *294:Y 0.00033894
3 *347:A *294:B 0
4 *347:A *299:A 0
5 *347:A *79:19 0
6 y[3] *347:A 0
7 y[7] *347:A 0
8 *294:C *347:A 4.77425e-05
9 *332:A *347:A 0
10 *41:38 *347:A 8.0216e-05
11 *64:10 *347:A 0
*RES
1 *294:Y *347:A 43.4299 
*END

*D_NET *73 0.00502304
*CONN
*I *348:A I *D sg13g2_buf_1
*I *295:Y O *D sg13g2_nor4_1
*CAP
1 *348:A 0
2 *295:Y 3.14532e-05
3 *73:14 0.0010025
4 *73:8 0.00103395
5 y[12] *73:14 0
6 y[4] *73:14 0
7 *296:C *73:14 0
8 *42:32 *73:8 4.77347e-05
9 *43:32 *73:14 0
10 *65:12 *73:14 0.0029074
11 *66:12 *73:14 0
*RES
1 *295:Y *73:8 40.3193 
2 *73:8 *73:14 35.6251 
3 *73:14 *348:A 20 
*END

*D_NET *74 0.00423057
*CONN
*I *349:A I *D sg13g2_buf_1
*I *296:Y O *D sg13g2_nor3_1
*CAP
1 *349:A 0
2 *296:Y 0
3 *74:12 0.000783815
4 *74:6 0.000783815
5 *74:12 *75:14 0.00253427
6 y[13] *74:12 0
7 y[6] *74:12 0.000128662
8 *66:12 *74:12 0
9 *67:14 *74:12 0
*RES
1 *296:Y *74:6 40 
2 *74:6 *74:12 33.0295 
3 *74:12 *349:A 20 
*END

*D_NET *75 0.00698021
*CONN
*I *350:A I *D sg13g2_buf_1
*I *297:Y O *D sg13g2_nor3_1
*CAP
1 *350:A 0
2 *297:Y 3.15355e-05
3 *75:14 0.000791182
4 *75:8 0.000822717
5 *75:8 *80:27 0
6 *75:14 *296:A 0
7 y[6] *75:14 0
8 *306:C *75:14 0
9 *44:28 *75:14 0
10 *66:12 *75:14 0
11 *67:8 *75:8 0
12 *67:14 *75:14 0.0028005
13 *74:12 *75:14 0.00253427
*RES
1 *297:Y *75:8 40.3193 
2 *75:8 *75:14 35.5942 
3 *75:14 *350:A 20 
*END

*D_NET *76 0.000435726
*CONN
*I *351:A I *D sg13g2_buf_1
*I *299:Y O *D sg13g2_nor2_1
*CAP
1 *351:A 0
2 *299:Y 0.000217863
3 *76:8 0.000217863
4 sb[4] *76:8 0
5 *303:C *76:8 0
6 *45:8 *76:8 0
7 *64:10 *76:8 0
*RES
1 *299:Y *76:8 42.3278 
2 *76:8 *351:A 40 
*END

*D_NET *77 0.00127008
*CONN
*I *352:A I *D sg13g2_buf_1
*I *300:Y O *D sg13g2_nor4_1
*CAP
1 *352:A 0
2 *300:Y 0.000635042
3 *77:10 0.000635042
4 *288:D *77:10 0
5 *316:A *77:10 0
6 *47:8 *77:10 0
*RES
1 *300:Y *77:10 46.8804 
2 *77:10 *352:A 40 
*END

*D_NET *78 0.000935207
*CONN
*I *353:A I *D sg13g2_buf_1
*I *301:Y O *D sg13g2_nor3_1
*CAP
1 *353:A 2.9979e-05
2 *301:Y 0.000349624
3 *78:8 0.000379603
4 *353:A *80:12 4.77534e-05
5 *78:8 *80:12 0
6 *78:8 *80:27 0
7 y[2] *78:8 0.000128248
8 *292:C *78:8 0
9 *319:A *78:8 0
10 *63:10 *78:8 0
*RES
1 *301:Y *78:8 43.0694 
2 *78:8 *353:A 40.3193 
*END

*D_NET *79 0.00978754
*CONN
*I *296:A I *D sg13g2_nor3_1
*I *295:A I *D sg13g2_nor4_1
*I *288:A I *D sg13g2_nor4_1
*I *286:A I *D sg13g2_inv_1
*I *290:A I *D sg13g2_nor3_1
*I *294:A I *D sg13g2_nor3_1
*I *299:A I *D sg13g2_nor2_1
*I *292:A I *D sg13g2_nor3_1
*I *314:X O *D sg13g2_buf_1
*CAP
1 *296:A 0.000248946
2 *295:A 0
3 *288:A 0.000227086
4 *286:A 0.000121701
5 *290:A 0
6 *294:A 0
7 *299:A 0.000258348
8 *292:A 2.36489e-05
9 *314:X 0.00021738
10 *79:81 0.000587628
11 *79:75 0.000824004
12 *79:64 0.0015568
13 *79:31 0.000582957
14 *79:21 0.000407599
15 *79:19 0.00146955
16 *79:8 0.000407005
17 *299:A *294:B 1.54008e-05
18 *79:8 *80:12 0
19 *79:19 *303:B 0
20 *79:19 *81:42 0
21 *79:21 *303:B 0
22 *79:31 *294:B 0.000129271
23 *79:64 *81:34 0.00012816
24 *79:64 *81:38 0
25 y[15] *79:31 0.000181694
26 *295:B *288:A 0.000332594
27 *296:B *296:A 0
28 *297:B *79:81 0.000111025
29 *299:B *299:A 8.01445e-05
30 *299:B *79:31 4.78195e-05
31 *306:C *296:A 0.000265575
32 *346:A *79:8 0
33 *347:A *299:A 0
34 *347:A *79:19 0
35 *41:26 *286:A 0.000112289
36 *41:32 *79:64 0.000795322
37 *41:38 *79:31 0
38 *41:38 *79:64 0.000447183
39 *41:82 *296:A 0
40 *41:82 *79:75 0
41 *42:8 *79:81 0
42 *42:32 *79:81 0
43 *44:10 *79:64 0
44 *44:28 *296:A 0.000128334
45 *44:28 *79:64 0
46 *44:28 *79:75 0
47 *47:27 *79:81 0
48 *58:75 *288:A 0
49 *58:75 *79:81 0
50 *63:10 *79:8 8.00842e-05
51 *66:12 *296:A 0
52 *69:16 *79:31 0
53 *75:14 *296:A 0
*RES
1 *314:X *79:8 22.2145 
2 *79:8 *292:A 20.3502 
3 *79:8 *79:19 1.5347 
4 *79:19 *79:21 0.7519 
5 *79:21 *79:31 43.2136 
6 *79:31 *299:A 22.5338 
7 *79:31 *294:A 20 
8 *79:21 *290:A 20 
9 *79:19 *79:64 33.0604 
10 *79:64 *286:A 41.1845 
11 *79:64 *79:75 1.8334 
12 *79:75 *79:81 23.6977 
13 *79:81 *288:A 22.884 
14 *79:81 *295:A 20 
15 *79:75 *296:A 43.1827 
*END

*D_NET *80 0.00452713
*CONN
*I *297:A I *D sg13g2_nor3_1
*I *314:A I *D sg13g2_buf_1
*I *320:X O *D sg13g2_buf_1
*CAP
1 *297:A 0
2 *314:A 3.21805e-05
3 *320:X 0.000729443
4 *80:27 0.00120472
5 *80:12 0.00196634
6 *80:12 *292:B 0
7 *80:12 *303:B 0
8 y[1] *80:12 0
9 y[2] *80:12 0.000144767
10 *319:A *80:12 0.000209184
11 *320:A *80:12 0
12 *339:A *80:12 0.000144882
13 *345:A *80:12 4.78521e-05
14 *346:A *314:A 0
15 *346:A *80:12 0
16 *353:A *80:12 4.77534e-05
17 *44:10 *80:27 0
18 *44:28 *80:27 0
19 *67:8 *80:27 0
20 *75:8 *80:27 0
21 *78:8 *80:12 0
22 *78:8 *80:27 0
23 *79:8 *80:12 0
*RES
1 *320:X *80:12 47.7559 
2 *80:12 *314:A 40.3193 
3 *80:12 *80:27 34.7908 
4 *80:27 *297:A 20 
*END

*D_NET *81 0.00940566
*CONN
*I *301:B I *D sg13g2_nor3_1
*I *290:B I *D sg13g2_nor3_1
*I *294:B I *D sg13g2_nor3_1
*I *302:B I *D sg13g2_nor3_1
*I *292:B I *D sg13g2_nor3_1
*I *303:B I *D sg13g2_nor3_1
*I *287:A I *D sg13g2_inv_1
*I *298:C I *D sg13g2_nand3_1
*I *315:X O *D sg13g2_buf_1
*CAP
1 *301:B 8.00047e-05
2 *290:B 0
3 *294:B 0.000286747
4 *302:B 4.08322e-05
5 *292:B 3.01391e-05
6 *303:B 0.000419442
7 *287:A 0
8 *298:C 0.000209431
9 *315:X 2.7211e-05
10 *81:71 0.000418023
11 *81:48 0.00054289
12 *81:42 0.00023111
13 *81:38 0.000371149
14 *81:34 0.000328949
15 *81:25 0.000651926
16 *81:12 0.00103882
17 *81:6 0.000310709
18 y[15] *294:B 0
19 *290:C *294:B 1.54556e-05
20 *290:C *81:71 4.78685e-05
21 *292:C *81:48 0.00023464
22 *299:A *294:B 1.54008e-05
23 *301:C *301:B 0.000112138
24 *301:C *81:42 0
25 *304:D *81:25 0
26 *315:A *294:B 0
27 *315:A *298:C 8.0216e-05
28 *315:A *81:6 4.74163e-05
29 *315:A *81:12 0.000175709
30 *319:A *303:B 0.000209184
31 *344:A *294:B 0
32 *347:A *294:B 0
33 *41:38 *303:B 0
34 *41:58 *301:B 0
35 *41:58 *81:6 0
36 *41:66 *81:38 0
37 *43:10 *81:12 0.000128154
38 *43:10 *81:25 0.000661544
39 *43:32 *81:25 0.00176291
40 *44:10 *81:48 5.30319e-05
41 *46:10 *81:12 0
42 *47:35 *298:C 0
43 *58:20 *81:25 0.000342629
44 *65:12 *81:25 0
45 *69:8 *81:12 0
46 *69:16 *298:C 0.000274545
47 *79:19 *303:B 0
48 *79:19 *81:42 0
49 *79:21 *303:B 0
50 *79:31 *294:B 0.000129271
51 *79:64 *81:34 0.00012816
52 *79:64 *81:38 0
53 *80:12 *292:B 0
54 *80:12 *303:B 0
*RES
1 *315:X *81:6 20.3193 
2 *81:6 *81:12 21.7819 
3 *81:12 *298:C 42.266 
4 *81:12 *81:25 31.227 
5 *81:25 *287:A 20 
6 *81:6 *81:34 21.0918 
7 *81:34 *81:38 21.0918 
8 *81:38 *81:42 0.8858 
9 *81:42 *81:48 41.339 
10 *81:48 *303:B 23.7801 
11 *81:48 *292:B 20.3193 
12 *81:42 *302:B 20.3193 
13 *81:38 *81:71 1.1845 
14 *81:71 *294:B 22.6162 
15 *81:71 *290:B 20 
16 *81:34 *301:B 40.7519 
*END

*D_NET *82 0.00086778
*CONN
*I *280:A I *D sg13g2_inv_1
*I *308:A I *D sg13g2_buf_1
*I *321:X O *D sg13g2_buf_1
*CAP
1 *280:A 0.000206925
2 *308:A 0
3 *321:X 0.000226965
4 *82:8 0.00043389
5 *326:A *280:A 0
6 *340:A *82:8 0
*RES
1 *321:X *82:8 22.8943 
2 *82:8 *308:A 20 
3 *82:8 *280:A 22.3999 
*END

*D_NET *83 0.000911838
*CONN
*I *309:A I *D sg13g2_buf_1
*I *281:A I *D sg13g2_inv_1
*I *322:X O *D sg13g2_buf_1
*CAP
1 *309:A 7.77352e-05
2 *281:A 0.000204814
3 *322:X 0.00017337
4 *83:14 0.000455919
5 s[5] *309:A 0
6 *322:A *281:A 0
7 *322:A *309:A 0
*RES
1 *322:X *83:14 42.266 
2 *83:14 *281:A 42.1218 
3 *83:14 *309:A 40.7519 
*END

*D_NET *84 0.00123767
*CONN
*I *310:A I *D sg13g2_buf_1
*I *282:A I *D sg13g2_inv_1
*I *323:X O *D sg13g2_buf_1
*CAP
1 *310:A 7.15553e-05
2 *282:A 0.000112406
3 *323:X 0.000165536
4 *84:10 0.000349497
5 *323:A *282:A 0
6 *323:A *84:10 0
7 *15:10 *310:A 0.000234224
8 *15:10 *84:10 4.77537e-05
9 *51:8 *282:A 7.50949e-05
10 *51:8 *310:A 0.000181608
11 *57:8 *282:A 0
*RES
1 *323:X *84:10 41.7201 
2 *84:10 *282:A 41.1639 
3 *84:10 *310:A 41.339 
*END

*D_NET *85 0.000381439
*CONN
*I *311:A I *D sg13g2_buf_1
*I *283:A I *D sg13g2_inv_1
*I *324:X O *D sg13g2_buf_1
*CAP
1 *311:A 0
2 *283:A 7.60428e-05
3 *324:X 0.000114677
4 *85:8 0.000190719
5 *324:A *283:A 0
*RES
1 *324:X *85:8 21.4111 
2 *85:8 *283:A 20.9167 
3 *85:8 *311:A 20 
*END

*D_NET *86 0.000722754
*CONN
*I *312:A I *D sg13g2_buf_1
*I *284:A I *D sg13g2_inv_1
*I *325:X O *D sg13g2_buf_1
*CAP
1 *312:A 0.000217157
2 *284:A 0
3 *325:X 0.00014422
4 *86:8 0.000361377
5 *325:A *312:A 0
6 *330:A *312:A 0
*RES
1 *325:X *86:8 21.8746 
2 *86:8 *284:A 20 
3 *86:8 *312:A 22.3999 
*END
